qbf_easy_train/easy_4399_SAT.qdimacs
p cnf 19 40
a 1 2 6 0
e 3 4 5 7 8 9 10 11 12 13 14 15 16 17 18 19 0
1 -2 -3 0
-1 2 -3 0
1 2 3 0
-1 -2 3 0
-6 4 0
-6 -5 0
-4 5 6 0
-7 -3 0
-7 -6 0
3 6 7 0
-9 8 0
-9 1 0
-8 -1 9 0
11 10 0
11 4 0
-10 -4 -11 0
-12 9 0
-12 11 0
-9 -11 12 0
7 -12 -13 0
-7 12 -13 0
7 12 13 0
-7 -12 13 0
-14 -11 0
-14 -1 0
11 1 14 0
-17 -15 0
-17 16 0
15 -16 17 0
-18 14 0
-18 17 0
-14 -17 18 0
19 -13 0
19 -18 0
13 18 -19 0
19 -17 2 13 12 -3 0
19 -15 -17 -3 13 -11 0
8 6 0
19 12 18 -8 13 0
19 0
