sat_easy_train/easy_4399_SAT.dimacs
p cnf 127 428
-1 -2 -3 0
1 2 -3 0
-1 2 3 0
1 -2 3 0
6 4 0
6 -5 0
-4 5 -6 0
6 7 -8 0
-6 -7 -8 0
6 -7 8 0
-6 7 8 0
-8 -2 -9 0
8 2 -9 0
-8 2 9 0
8 -2 9 0
-3 -9 -10 0
3 9 -10 0
-3 9 10 0
3 -9 10 0
-12 -11 0
-12 -2 0
11 2 12 0
-13 10 0
-13 -12 0
-10 12 13 0
-15 -1 0
-15 -1 0
1 15 0
-16 1 0
-16 -15 0
-1 15 16 0
17 -2 0
17 -5 0
2 5 -17 0
-16 -17 -18 0
16 17 -18 0
-16 17 18 0
16 -17 18 0
-19 -14 0
-19 -18 0
14 18 19 0
-20 -1 0
-20 -5 0
1 5 20 0
-21 -20 0
-21 15 0
20 -15 21 0
22 -19 0
22 21 0
19 -21 -22 0
13 22 -23 0
-13 -22 -23 0
13 -22 23 0
-13 22 23 0
1 24 -25 0
-1 -24 -25 0
1 -24 25 0
-1 24 25 0
3 -25 -26 0
-3 25 -26 0
3 25 26 0
-3 -25 26 0
-27 -26 0
-27 -3 0
26 3 27 0
-28 -2 0
-28 -15 0
2 15 28 0
30 28 0
30 -29 0
-28 29 -30 0
33 31 0
33 -32 0
-31 32 -33 0
30 33 -34 0
-30 -33 -34 0
30 -33 34 0
-30 33 34 0
-35 -11 -36 0
35 11 -36 0
-35 11 36 0
35 -11 36 0
37 -34 0
37 36 0
34 -36 -37 0
27 -37 -38 0
-27 37 -38 0
27 37 38 0
-27 -37 38 0
39 20 0
39 -11 0
-20 11 -39 0
40 -38 0
40 -39 0
38 39 -40 0
42 -41 0
42 1 0
41 -1 -42 0
42 -11 -43 0
-42 11 -43 0
42 11 43 0
-42 -11 43 0
-44 -40 0
-44 -43 0
40 43 44 0
-46 -15 0
-46 -45 0
15 45 46 0
-47 -2 0
-47 -46 0
2 46 47 0
-48 20 0
-48 47 0
-20 -47 48 0
49 -4 0
49 -33 0
4 33 -49 0
50 -30 0
50 -4 0
30 4 -50 0
51 16 0
51 7 0
-16 -7 -51 0
52 -51 0
52 -28 0
51 28 -52 0
-50 52 -53 0
50 -52 -53 0
-50 -52 53 0
50 52 53 0
54 49 0
54 53 0
-49 -53 -54 0
-55 48 0
-55 -54 0
-48 54 55 0
-56 44 0
-56 55 0
-44 -55 56 0
-57 -25 0
-57 29 0
25 -29 57 0
58 -4 0
58 57 0
4 -57 -58 0
59 45 0
59 -58 0
-45 58 -59 0
-57 59 -60 0
57 -59 -60 0
-57 -59 60 0
57 59 60 0
61 60 0
61 60 0
-60 -61 0
-61 -62 -63 0
61 62 -63 0
-61 62 63 0
61 -62 63 0
6 -25 -64 0
-6 25 -64 0
6 25 64 0
-6 -25 64 0
-28 -64 -65 0
28 64 -65 0
-28 64 65 0
28 -64 65 0
65 -8 -66 0
-65 8 -66 0
65 8 66 0
-65 -8 66 0
63 -66 -67 0
-63 66 -67 0
63 66 67 0
-63 -66 67 0
68 -24 0
68 5 0
24 -5 -68 0
32 -7 -69 0
-32 7 -69 0
32 7 69 0
-32 -7 69 0
70 69 0
70 -41 0
-69 41 -70 0
-71 70 0
-71 -70 0
68 71 -72 0
-68 -71 -72 0
68 -71 72 0
-68 71 72 0
1 7 -73 0
-1 -7 -73 0
1 -7 73 0
-1 7 73 0
20 73 -74 0
-20 -73 -74 0
20 -73 74 0
-20 73 74 0
-75 74 0
-75 -57 0
-74 57 75 0
-75 47 -76 0
75 -47 -76 0
-75 -47 76 0
75 47 76 0
72 76 -77 0
-72 -76 -77 0
72 -76 77 0
-72 76 77 0
-32 74 -78 0
32 -74 -78 0
-32 -74 78 0
32 74 78 0
-79 -77 0
-79 -78 0
77 78 79 0
-80 -32 0
-80 65 0
32 -65 80 0
79 -80 -81 0
-79 80 -81 0
79 80 81 0
-79 -80 81 0
83 -82 0
83 -45 0
82 45 -83 0
-69 83 -84 0
69 -83 -84 0
-69 -83 84 0
69 83 84 0
85 15 0
85 -84 0
-15 84 -85 0
-86 -6 0
-86 33 0
6 -33 86 0
87 86 0
87 -58 0
-86 58 -87 0
-88 85 0
-88 -87 0
-85 87 88 0
-89 -57 0
-89 -84 0
57 84 89 0
-88 -89 -90 0
88 89 -90 0
-88 89 90 0
88 -89 90 0
-91 81 0
-91 -90 0
-81 90 91 0
67 -91 -92 0
-67 91 -92 0
67 91 92 0
-67 -91 92 0
-93 -82 0
-93 -83 0
82 83 93 0
69 -45 -94 0
-69 45 -94 0
69 45 94 0
-69 -45 94 0
-93 -94 -95 0
93 94 -95 0
-93 94 95 0
93 -94 95 0
-96 92 0
-96 -95 0
-92 95 96 0
-97 56 0
-97 96 0
-56 -96 97 0
-98 -23 0
-98 97 0
23 -97 98 0
-28 33 -99 0
28 -33 -99 0
-28 -33 99 0
28 33 99 0
-100 33 0
-100 -20 0
-33 20 100 0
100 33 -101 0
-100 -33 -101 0
100 -33 101 0
-100 33 101 0
102 -99 0
102 -101 0
99 101 -102 0
-14 8 -103 0
14 -8 -103 0
-14 -8 103 0
14 8 103 0
104 103 0
104 -3 0
-103 3 -104 0
105 104 0
105 -11 0
-104 11 -105 0
-106 -30 0
-106 29 0
30 -29 106 0
106 -16 -107 0
-106 16 -107 0
106 16 107 0
-106 -16 107 0
-108 -105 0
-108 107 0
105 -107 108 0
-109 -35 0
-109 -24 0
35 24 109 0
100 -109 -110 0
-100 109 -110 0
100 109 110 0
-100 -109 110 0
111 18 0
111 -110 0
-18 110 -111 0
-112 111 0
-112 -3 0
-111 3 112 0
-113 -108 0
-113 112 0
108 -112 113 0
-114 102 0
-114 113 0
-102 -113 114 0
-115 73 0
-115 42 0
-73 -42 115 0
115 -65 -116 0
-115 65 -116 0
115 65 116 0
-115 -65 116 0
-117 82 0
-117 35 0
-82 -35 117 0
-118 1 0
-118 -16 0
-1 16 118 0
119 -118 0
119 -20 0
118 20 -119 0
-20 -119 -120 0
20 119 -120 0
-20 119 120 0
20 -119 120 0
-121 -120 0
-121 70 0
120 -70 121 0
122 117 0
122 -121 0
-117 121 -122 0
123 116 0
123 122 0
-116 -122 -123 0
-124 -111 0
-124 20 0
111 -20 124 0
125 -123 0
125 124 0
123 -124 -125 0
126 -114 0
126 125 0
114 -125 -126 0
127 -98 0
127 -126 0
98 126 -127 0
-30 71 -58 114 -73 0
-107 57 0
24 -48 39 -20 125 42 0
10 -17 52 -11 -65 83 0
-42 37 -5 0
-95 -60 77 -19 0
79 44 88 56 0
-115 96 0
47 83 86 -15 -16 57 0
64 -122 102 0
122 -100 36 56 90 0
1 -48 47 0
-84 -98 121 -37 -94 49 0
119 115 -78 -87 59 0
-23 -68 -35 -39 42 87 0
127 44 119 3 0
123 -90 -31 -47 121 0
-48 97 76 -86 -116 0
81 24 45 29 -100 0
-3 -18 -42 103 -80 -6 0
-113 99 25 117 -59 0
-59 110 -88 0
-72 126 75 -65 0
-18 -80 77 81 43 0
5 85 36 0
20 -71 0
123 35 0
-104 88 96 -37 0
-96 43 -50 -113 -101 20 0
48 95 -106 17 0
-101 -65 5 -19 61 0
90 -85 0
56 -68 -40 -127 114 -36 0
36 -69 -104 1 -37 0
-35 -66 -90 0
-30 49 -123 -39 -41 0
101 78 94 0
124 6 112 22 0
94 -83 26 -29 84 0
-37 26 66 0
6 -13 53 72 49 -11 0
-115 125 123 -116 86 9 0
-102 48 31 0
-97 -106 0
77 -86 -36 70 9 -83 0
-112 121 95 -49 60 0
112 -53 -18 -38 0
27 -75 -22 0
47 43 81 -55 -63 11 0
106 123 0
71 51 0
7 121 65 0
-42 96 -86 71 -48 0
-22 104 81 111 12 0
-16 111 -71 -86 0
74 39 -51 -52 -16 -111 0
127 0
